
(set-logic ALL) 

(declare-datatype MyList ((Nil) (Cons (head Real) (tail MyList)) )) 
(declare-fun l0 () MyList) 
(declare-fun l1 () MyList) 
(declare-fun l2 () MyList) 
(declare-fun l3 () MyList) 
(declare-fun i0 () Real) 
(declare-fun i1 () Real) 
(assert (or (= l3 l2) (is-Cons Nil) (is-Cons Nil)) )
(assert (and (is-Cons l3) (= l1 l1)) )
(assert (and (is-Nil Nil) (= l3 l3)) )
(assert (is-Cons Nil) )
(assert (is-Cons Nil) )
(assert (not (= l3 Nil)) )
(assert (= l3 Nil) )
(assert (and (= l2 Nil) (is-Cons Nil) (= l1 Nil)) )
(check-sat)
